c
c Generated WCNF file
c
p wcnf 172 802 44038
44038 19 0
44038 -20 1 0
44038 -20 2 0
44038 20 -1 -2 0
44038 -21 1 0
44038 -21 3 0
44038 21 -1 -3 0
44038 -22 1 0
44038 -22 4 0
44038 22 -1 -4 0
44038 -23 1 0
44038 -23 5 0
44038 23 -1 -5 0
44038 -24 1 0
44038 -24 6 0
44038 24 -1 -6 0
44038 -25 1 0
44038 -25 7 0
44038 25 -1 -7 0
44038 -26 1 0
44038 -26 8 0
44038 26 -1 -8 0
44038 -27 1 0
44038 -27 9 0
44038 27 -1 -9 0
44038 -28 1 0
44038 -28 10 0
44038 28 -1 -10 0
44038 -29 1 0
44038 -29 11 0
44038 29 -1 -11 0
44038 -30 1 0
44038 -30 12 0
44038 30 -1 -12 0
44038 -31 1 0
44038 -31 13 0
44038 31 -1 -13 0
44038 -32 1 0
44038 -32 14 0
44038 32 -1 -14 0
44038 -33 1 0
44038 -33 15 0
44038 33 -1 -15 0
44038 -34 1 0
44038 -34 16 0
44038 34 -1 -16 0
44038 -35 1 0
44038 -35 17 0
44038 35 -1 -17 0
44038 -36 1 0
44038 -36 18 0
44038 36 -1 -18 0
44038 -37 2 0
44038 -37 3 0
44038 37 -2 -3 0
44038 -38 2 0
44038 -38 4 0
44038 38 -2 -4 0
44038 -39 2 0
44038 -39 5 0
44038 39 -2 -5 0
44038 -40 2 0
44038 -40 6 0
44038 40 -2 -6 0
44038 -41 2 0
44038 -41 7 0
44038 41 -2 -7 0
44038 -42 2 0
44038 -42 8 0
44038 42 -2 -8 0
44038 -43 2 0
44038 -43 9 0
44038 43 -2 -9 0
44038 -44 2 0
44038 -44 10 0
44038 44 -2 -10 0
44038 -45 2 0
44038 -45 11 0
44038 45 -2 -11 0
44038 -46 2 0
44038 -46 12 0
44038 46 -2 -12 0
44038 -47 2 0
44038 -47 13 0
44038 47 -2 -13 0
44038 -48 2 0
44038 -48 14 0
44038 48 -2 -14 0
44038 -49 2 0
44038 -49 15 0
44038 49 -2 -15 0
44038 -50 2 0
44038 -50 16 0
44038 50 -2 -16 0
44038 -51 2 0
44038 -51 17 0
44038 51 -2 -17 0
44038 -52 2 0
44038 -52 18 0
44038 52 -2 -18 0
44038 -53 3 0
44038 -53 4 0
44038 53 -3 -4 0
44038 -54 3 0
44038 -54 5 0
44038 54 -3 -5 0
44038 -55 3 0
44038 -55 6 0
44038 55 -3 -6 0
44038 -56 3 0
44038 -56 7 0
44038 56 -3 -7 0
44038 -57 3 0
44038 -57 8 0
44038 57 -3 -8 0
44038 -58 3 0
44038 -58 9 0
44038 58 -3 -9 0
44038 -59 3 0
44038 -59 10 0
44038 59 -3 -10 0
44038 -60 3 0
44038 -60 11 0
44038 60 -3 -11 0
44038 -61 3 0
44038 -61 12 0
44038 61 -3 -12 0
44038 -62 3 0
44038 -62 13 0
44038 62 -3 -13 0
44038 -63 3 0
44038 -63 14 0
44038 63 -3 -14 0
44038 -64 3 0
44038 -64 15 0
44038 64 -3 -15 0
44038 -65 3 0
44038 -65 16 0
44038 65 -3 -16 0
44038 -66 3 0
44038 -66 17 0
44038 66 -3 -17 0
44038 -67 3 0
44038 -67 18 0
44038 67 -3 -18 0
44038 -68 4 0
44038 -68 5 0
44038 68 -4 -5 0
44038 -69 4 0
44038 -69 6 0
44038 69 -4 -6 0
44038 -70 4 0
44038 -70 7 0
44038 70 -4 -7 0
44038 -71 4 0
44038 -71 8 0
44038 71 -4 -8 0
44038 -72 4 0
44038 -72 9 0
44038 72 -4 -9 0
44038 -73 4 0
44038 -73 10 0
44038 73 -4 -10 0
44038 -74 4 0
44038 -74 11 0
44038 74 -4 -11 0
44038 -75 4 0
44038 -75 12 0
44038 75 -4 -12 0
44038 -76 4 0
44038 -76 13 0
44038 76 -4 -13 0
44038 -77 4 0
44038 -77 14 0
44038 77 -4 -14 0
44038 -78 4 0
44038 -78 15 0
44038 78 -4 -15 0
44038 -79 4 0
44038 -79 16 0
44038 79 -4 -16 0
44038 -80 4 0
44038 -80 17 0
44038 80 -4 -17 0
44038 -81 4 0
44038 -81 18 0
44038 81 -4 -18 0
44038 -82 5 0
44038 -82 6 0
44038 82 -5 -6 0
44038 -83 5 0
44038 -83 7 0
44038 83 -5 -7 0
44038 -84 5 0
44038 -84 8 0
44038 84 -5 -8 0
44038 -85 5 0
44038 -85 9 0
44038 85 -5 -9 0
44038 -86 5 0
44038 -86 10 0
44038 86 -5 -10 0
44038 -87 5 0
44038 -87 11 0
44038 87 -5 -11 0
44038 -88 5 0
44038 -88 12 0
44038 88 -5 -12 0
44038 -89 5 0
44038 -89 13 0
44038 89 -5 -13 0
44038 -90 5 0
44038 -90 14 0
44038 90 -5 -14 0
44038 -91 5 0
44038 -91 15 0
44038 91 -5 -15 0
44038 -92 5 0
44038 -92 16 0
44038 92 -5 -16 0
44038 -93 5 0
44038 -93 17 0
44038 93 -5 -17 0
44038 -94 5 0
44038 -94 18 0
44038 94 -5 -18 0
44038 -95 6 0
44038 -95 7 0
44038 95 -6 -7 0
44038 -96 6 0
44038 -96 8 0
44038 96 -6 -8 0
44038 -97 6 0
44038 -97 9 0
44038 97 -6 -9 0
44038 -98 6 0
44038 -98 10 0
44038 98 -6 -10 0
44038 -99 6 0
44038 -99 11 0
44038 99 -6 -11 0
44038 -100 6 0
44038 -100 12 0
44038 100 -6 -12 0
44038 -101 6 0
44038 -101 13 0
44038 101 -6 -13 0
44038 -102 6 0
44038 -102 14 0
44038 102 -6 -14 0
44038 -103 6 0
44038 -103 15 0
44038 103 -6 -15 0
44038 -104 6 0
44038 -104 16 0
44038 104 -6 -16 0
44038 -105 6 0
44038 -105 17 0
44038 105 -6 -17 0
44038 -106 6 0
44038 -106 18 0
44038 106 -6 -18 0
44038 -107 7 0
44038 -107 8 0
44038 107 -7 -8 0
44038 -108 7 0
44038 -108 9 0
44038 108 -7 -9 0
44038 -109 7 0
44038 -109 10 0
44038 109 -7 -10 0
44038 -110 7 0
44038 -110 11 0
44038 110 -7 -11 0
44038 -111 7 0
44038 -111 12 0
44038 111 -7 -12 0
44038 -112 7 0
44038 -112 13 0
44038 112 -7 -13 0
44038 -113 7 0
44038 -113 14 0
44038 113 -7 -14 0
44038 -114 7 0
44038 -114 15 0
44038 114 -7 -15 0
44038 -115 7 0
44038 -115 16 0
44038 115 -7 -16 0
44038 -116 7 0
44038 -116 17 0
44038 116 -7 -17 0
44038 -117 7 0
44038 -117 18 0
44038 117 -7 -18 0
44038 -118 8 0
44038 -118 9 0
44038 118 -8 -9 0
44038 -119 8 0
44038 -119 10 0
44038 119 -8 -10 0
44038 -120 8 0
44038 -120 11 0
44038 120 -8 -11 0
44038 -121 8 0
44038 -121 12 0
44038 121 -8 -12 0
44038 -122 8 0
44038 -122 13 0
44038 122 -8 -13 0
44038 -123 8 0
44038 -123 14 0
44038 123 -8 -14 0
44038 -124 8 0
44038 -124 15 0
44038 124 -8 -15 0
44038 -125 8 0
44038 -125 16 0
44038 125 -8 -16 0
44038 -126 8 0
44038 -126 17 0
44038 126 -8 -17 0
44038 -127 8 0
44038 -127 18 0
44038 127 -8 -18 0
44038 -128 9 0
44038 -128 10 0
44038 128 -9 -10 0
44038 -129 9 0
44038 -129 11 0
44038 129 -9 -11 0
44038 -130 9 0
44038 -130 12 0
44038 130 -9 -12 0
44038 -131 9 0
44038 -131 13 0
44038 131 -9 -13 0
44038 -132 9 0
44038 -132 14 0
44038 132 -9 -14 0
44038 -133 9 0
44038 -133 15 0
44038 133 -9 -15 0
44038 -134 9 0
44038 -134 16 0
44038 134 -9 -16 0
44038 -135 9 0
44038 -135 17 0
44038 135 -9 -17 0
44038 -136 9 0
44038 -136 18 0
44038 136 -9 -18 0
44038 -137 10 0
44038 -137 11 0
44038 137 -10 -11 0
44038 -138 10 0
44038 -138 12 0
44038 138 -10 -12 0
44038 -139 10 0
44038 -139 13 0
44038 139 -10 -13 0
44038 -140 10 0
44038 -140 14 0
44038 140 -10 -14 0
44038 -141 10 0
44038 -141 15 0
44038 141 -10 -15 0
44038 -142 10 0
44038 -142 16 0
44038 142 -10 -16 0
44038 -143 10 0
44038 -143 17 0
44038 143 -10 -17 0
44038 -144 10 0
44038 -144 18 0
44038 144 -10 -18 0
44038 -145 11 0
44038 -145 12 0
44038 145 -11 -12 0
44038 -146 11 0
44038 -146 13 0
44038 146 -11 -13 0
44038 -147 11 0
44038 -147 14 0
44038 147 -11 -14 0
44038 -148 11 0
44038 -148 15 0
44038 148 -11 -15 0
44038 -149 11 0
44038 -149 16 0
44038 149 -11 -16 0
44038 -150 11 0
44038 -150 17 0
44038 150 -11 -17 0
44038 -151 11 0
44038 -151 18 0
44038 151 -11 -18 0
44038 -152 12 0
44038 -152 13 0
44038 152 -12 -13 0
44038 -153 12 0
44038 -153 14 0
44038 153 -12 -14 0
44038 -154 12 0
44038 -154 15 0
44038 154 -12 -15 0
44038 -155 12 0
44038 -155 16 0
44038 155 -12 -16 0
44038 -156 12 0
44038 -156 17 0
44038 156 -12 -17 0
44038 -157 12 0
44038 -157 18 0
44038 157 -12 -18 0
44038 -158 13 0
44038 -158 14 0
44038 158 -13 -14 0
44038 -159 13 0
44038 -159 15 0
44038 159 -13 -15 0
44038 -160 13 0
44038 -160 16 0
44038 160 -13 -16 0
44038 -161 13 0
44038 -161 17 0
44038 161 -13 -17 0
44038 -162 13 0
44038 -162 18 0
44038 162 -13 -18 0
44038 -163 14 0
44038 -163 15 0
44038 163 -14 -15 0
44038 -164 14 0
44038 -164 16 0
44038 164 -14 -16 0
44038 -165 14 0
44038 -165 17 0
44038 165 -14 -17 0
44038 -166 14 0
44038 -166 18 0
44038 166 -14 -18 0
44038 -167 15 0
44038 -167 16 0
44038 167 -15 -16 0
44038 -168 15 0
44038 -168 17 0
44038 168 -15 -17 0
44038 -169 15 0
44038 -169 18 0
44038 169 -15 -18 0
44038 -170 16 0
44038 -170 17 0
44038 170 -16 -17 0
44038 -171 16 0
44038 -171 18 0
44038 171 -16 -18 0
44038 -172 17 0
44038 -172 18 0
44038 172 -17 -18 0
31209 1 0
44028 -1 0
42614 20 0
44028 -20 0
27508 21 0
44028 -21 0
54596 22 0
44028 -22 0
43646 23 0
44028 -23 0
44626 24 0
44028 -24 0
58260 25 0
44028 -25 0
41954 26 0
44028 -26 0
41704 27 0
44028 -27 0
50996 28 0
44028 -28 0
36976 29 0
44028 -29 0
41438 30 0
44028 -30 0
51524 31 0
44028 -31 0
44134 32 0
44028 -32 0
40506 33 0
44028 -33 0
44204 34 0
44028 -34 0
49216 35 0
44028 -35 0
48446 36 0
44028 -36 0
35380 2 0
44028 -2 0
43346 37 0
44028 -37 0
38172 38 0
44028 -38 0
42880 39 0
44028 -39 0
44706 40 0
44028 -40 0
41888 41 0
44028 -41 0
34466 42 0
44028 -42 0
42902 43 0
44028 -43 0
42158 44 0
44028 -44 0
41220 45 0
44028 -45 0
44636 46 0
44028 -46 0
43730 47 0
44028 -47 0
43228 48 0
44028 -48 0
42602 49 0
44028 -49 0
40316 50 0
44028 -50 0
42668 51 0
44028 -51 0
45438 52 0
44028 -52 0
38306 3 0
44028 -3 0
50530 53 0
44028 -53 0
36634 54 0
44028 -54 0
48480 55 0
44028 -55 0
51010 56 0
44028 -56 0
35976 57 0
44028 -57 0
37008 58 0
44028 -58 0
47244 59 0
44028 -59 0
41046 60 0
44028 -60 0
41646 61 0
44028 -61 0
44200 62 0
44028 -62 0
42974 63 0
44028 -63 0
46390 64 0
44028 -64 0
47012 65 0
44028 -65 0
47096 66 0
44028 -66 0
44498 67 0
44028 -67 0
31578 4 0
44028 -4 0
49568 68 0
44028 -68 0
47660 69 0
44028 -69 0
43286 70 0
44028 -70 0
49160 71 0
44028 -71 0
44606 72 0
44028 -72 0
38964 73 0
44028 -73 0
45468 74 0
44028 -74 0
43070 75 0
44028 -75 0
37404 76 0
44028 -76 0
44326 77 0
44028 -77 0
44024 78 0
44028 -78 0
39024 79 0
44028 -79 0
41968 80 0
44028 -80 0
44404 81 0
44028 -81 0
32721 5 0
44028 -5 0
44256 82 0
44028 -82 0
44092 83 0
44028 -83 0
29840 84 0
44028 -84 0
44316 85 0
44028 -85 0
45356 86 0
44028 -86 0
40388 87 0
44028 -87 0
49132 88 0
44028 -88 0
47996 89 0
44028 -89 0
40928 90 0
44028 -90 0
42026 91 0
44028 -91 0
46004 92 0
44028 -92 0
44720 93 0
44028 -93 0
45438 94 0
44028 -94 0
42546 6 0
44028 -6 0
45286 95 0
44028 -95 0
46278 96 0
44028 -96 0
39032 97 0
44028 -97 0
41188 98 0
44028 -98 0
40982 99 0
44028 -99 0
41360 100 0
44028 -100 0
48566 101 0
44028 -101 0
42016 102 0
44028 -102 0
38658 103 0
44028 -103 0
35576 104 0
44028 -104 0
43072 105 0
44028 -105 0
47882 106 0
44028 -106 0
22710 7 0
44028 -7 0
45356 107 0
44028 -107 0
50282 108 0
44028 -108 0
39204 109 0
44028 -109 0
50530 110 0
44028 -110 0
50258 111 0
44028 -111 0
40528 112 0
44028 -112 0
42402 113 0
44028 -113 0
46008 114 0
44028 -114 0
45376 115 0
44028 -115 0
40304 116 0
44028 -116 0
40456 117 0
44028 -117 0
40588 8 0
44028 -8 0
41402 118 0
44028 -118 0
47356 119 0
44028 -119 0
38476 120 0
44028 -120 0
48534 121 0
44028 -121 0
51720 122 0
44028 -122 0
40778 123 0
44028 -123 0
43626 124 0
44028 -124 0
48436 125 0
44028 -125 0
44752 126 0
44028 -126 0
43934 127 0
44028 -127 0
54052 9 0
44028 -9 0
44920 128 0
44028 -128 0
40566 129 0
44028 -129 0
40780 130 0
44028 -130 0
43162 131 0
44028 -131 0
42618 132 0
44028 -132 0
45524 133 0
44028 -133 0
40428 134 0
44028 -134 0
43040 135 0
44028 -135 0
44028 136 0
44028 -136 0
30480 10 0
44028 -10 0
50026 137 0
44028 -137 0
40870 138 0
44028 -138 0
39414 139 0
44028 -139 0
40048 140 0
44028 -140 0
47256 141 0
44028 -141 0
40140 142 0
44028 -142 0
41784 143 0
44028 -143 0
42336 144 0
44028 -144 0
51552 11 0
44028 -11 0
45928 145 0
44028 -145 0
47770 146 0
44028 -146 0
45012 147 0
44028 -147 0
41204 148 0
44028 -148 0
42704 149 0
44028 -149 0
45124 150 0
44028 -150 0
46096 151 0
44028 -151 0
36935 12 0
44028 -12 0
40628 152 0
44028 -152 0
48136 153 0
44028 -153 0
45320 154 0
44028 -154 0
41636 155 0
44028 -155 0
48668 156 0
44028 -156 0
47412 157 0
44028 -157 0
36465 13 0
44028 -13 0
45900 158 0
44028 -158 0
48828 159 0
44028 -159 0
42752 160 0
44028 -160 0
42788 161 0
44028 -161 0
41584 162 0
44028 -162 0
41993 14 0
44028 -14 0
43834 163 0
44028 -163 0
42644 164 0
44028 -164 0
41728 165 0
44028 -165 0
43182 166 0
44028 -166 0
41849 15 0
44028 -15 0
40188 167 0
44028 -167 0
44272 168 0
44028 -168 0
48634 169 0
44028 -169 0
44536 16 0
44028 -16 0
42132 170 0
44028 -170 0
47412 171 0
44028 -171 0
42264 17 0
44028 -17 0
42336 172 0
44028 -172 0
39845 18 0
44028 -18 0
